50
    49    64    78    33    56    58    52    82    81    44    57    49    99   100    79    79    28    70    91    38    27    61    61     4    93    48    44    71    65    72    87    50    24    37    28    67    90    14    94    64    23    42     6    96    26    22    72    38    41    21
     3     7     9     4     7     6     5     8     7     3     8     5     4     2     1     3     3    10     7     3     7     3     1     3     6     7    10     3     9     6     5     1     7     5     6     7     6     8    10     6     1     1    10    10     2     6     7     2     9     8
  2455  2462  2372  2082  2223  2166  2356  2382  2265  2099  2045  2283  2379  2168  2394  2007  2222  2473  2390  2034  2437  2259  1978  2462  2172  2459  2493  2091  2424  2417  2385  2212  2458  2441  2083  2366  2038  2184  2488  2475  2271  2090  2082  2475  2309  2331  2073  2235  2406  2032
